db/data/222432839424097252572304231239403215403.z3.out
sat
-------------------
859.519435223
